data/CVRPLIB/Vrp-Set-XML100/instances/XML100_3314_03.vrp
NAME : XML100_3314_03
COMMENT : Generated by Queiroga, Sadykov, Uchoa, and Vidal (2021)
TYPE : CVRP
DIMENSION : 101
EDGE_WEIGHT_TYPE : EUC_2D
CAPACITY : 13
NODE_COORD_SECTION
1    0    0   
2    290  775 
3    141  406 
4    54   55  
5    389  428 
6    707  673 
7    630  880 
8    765  65  
9    189  546 
10   939  859 
11   42   442 
12   153  92  
13   101  446 
14   650  427 
15   140  448 
16   424  383 
17   410  619 
18   642  2   
19   531  350 
20   309  494 
21   982  566 
22   15   693 
23   987  801 
24   434  393 
25   59   361 
26   273  680 
27   298  254 
28   171  203 
29   757  215 
30   34   532 
31   189  192 
32   186  146 
33   836  778 
34   95   5   
35   338  795 
36   223  87  
37   909  884 
38   545  401 
39   116  626 
40   126  153 
41   113  232 
42   831  133 
43   37   71  
44   523  310 
45   466  922 
46   502  436 
47   663  53  
48   347  711 
49   452  108 
50   60   526 
51   797  292 
52   825  873 
53   873  108 
54   641  277 
55   64   819 
56   311  628 
57   650  430 
58   196  693 
59   57   53  
60   549  147 
61   885  768 
62   111  501 
63   75   925 
64   838  395 
65   225  884 
66   281  488 
67   493  416 
68   87   467 
69   246  608 
70   199  271 
71   58   419 
72   31   470 
73   497  375 
74   951  82  
75   36   395 
76   657  69  
77   78   147 
78   414  477 
79   420  154 
80   196  588 
81   956  876 
82   568  21  
83   297  697 
84   22   473 
85   362  569 
86   431  463 
87   251  688 
88   335  423 
89   793  894 
90   54   890 
91   167  787 
92   263  645 
93   241  880 
94   507  54  
95   283  120 
96   976  925 
97   34   45  
98   51   867 
99   692  645 
100  630  170 
101  252  659 
DEMAND_SECTION
1    0   
2    1   
3    1   
4    1   
5    1   
6    1   
7    1   
8    1   
9    1   
10   1   
11   1   
12   1   
13   1   
14   1   
15   1   
16   1   
17   1   
18   1   
19   1   
20   1   
21   1   
22   1   
23   1   
24   1   
25   1   
26   1   
27   1   
28   1   
29   1   
30   1   
31   1   
32   1   
33   1   
34   1   
35   1   
36   1   
37   1   
38   1   
39   1   
40   1   
41   1   
42   1   
43   1   
44   1   
45   1   
46   1   
47   1   
48   1   
49   1   
50   1   
51   1   
52   1   
53   1   
54   1   
55   1   
56   1   
57   1   
58   1   
59   1   
60   1   
61   1   
62   1   
63   1   
64   1   
65   1   
66   1   
67   1   
68   1   
69   1   
70   1   
71   1   
72   1   
73   1   
74   1   
75   1   
76   1   
77   1   
78   1   
79   1   
80   1   
81   1   
82   1   
83   1   
84   1   
85   1   
86   1   
87   1   
88   1   
89   1   
90   1   
91   1   
92   1   
93   1   
94   1   
95   1   
96   1   
97   1   
98   1   
99   1   
100  1   
101  1   
DEPOT_SECTION
1
-1
EOF
