data/CVRPLIB/Vrp-Set-XML100/solutions/XML100_3314_03.sol
Route #1: 24 74 70 10 83 71 67 12 14 2 40 76 42
Route #2: 8 79 68 91 100 86 25 82 47 16 84 19 65
Route #3: 35 94 78 43 18 72 66 45 85 77 4 87 69
Route #4: 93 81 17 46 75 7 73 52 41 28 99 59 48
Route #5: 33 11 31 30 27 39 58 3 96
Route #6: 53 50 63 20 22 9 80 95 36 88 51 60 32
Route #7: 61 38 57 90 92 64 62 89 97 54 21 29 49
Route #8: 55 1 34 44 6 5 98 56 13 37 23 15 26
Cost 14773
